(set-logic ALL)
(declare-fun var0 () String)
(assert (str.in_re var0 (re.++ (re.+ (re.* (str.to_re "00"))) (re.++ (re.union (re.* (str.to_re "1")) (re.* (str.to_re "2"))) (re.++ (re.+ (re.* (str.to_re "33"))) (re.++ (re.union (re.+ (str.to_re "444")) (re.+ (str.to_re "5"))) (re.++ (re.union (re.+ (str.to_re "6")) (re.+ (str.to_re "77"))) (re.++ (re.+ (re.+ (str.to_re "8"))) (re.++ (re.* (re.union (str.to_re "9") (str.to_re "aa"))) (re.++ (re.+ (re.+ (str.to_re "b"))) (re.++ (re.* (re.* (str.to_re "c"))) (re.++ (re.union (re.union (str.to_re "ddd") (str.to_re "ee")) (re.union (str.to_re "fff") (str.to_re "gg"))) (re.++ (re.* (re.* (str.to_re "hhh"))) (re.++ (re.+ (re.+ (str.to_re "i"))) (re.++ (re.+ (re.* (str.to_re "j"))) (re.++ (re.+ (re.* (str.to_re "kk"))) (re.++ (re.union (re.+ (str.to_re "ll")) (re.+ (str.to_re "mmm"))) (re.++ (re.* (re.+ (str.to_re "nn"))) (re.++ (re.+ (re.+ (str.to_re "oo"))) (re.++ (re.* (re.union (str.to_re "ppp") (str.to_re "q"))) (re.++ (re.+ (re.+ (str.to_re "r"))) (re.++ (re.+ (re.union (str.to_re "sss") (str.to_re "tt"))) (re.++ (re.+ (re.* (str.to_re "uu"))) (re.++ (re.* (re.union (str.to_re "vvv") (str.to_re "ww"))) (re.++ (re.* (re.+ (str.to_re "x"))) (re.++ (re.+ (re.+ (str.to_re "yyy"))) (re.++ (re.* (re.* (str.to_re "z"))) (re.++ (re.* (re.union (str.to_re "A") (str.to_re "BBB"))) (re.++ (re.+ (re.union (str.to_re "C") (str.to_re "DD"))) (re.++ (re.+ (re.union (str.to_re "EEE") (str.to_re "FFF"))) (re.++ (re.* (re.* (str.to_re "GGG"))) (re.++ (re.+ (re.union (str.to_re "HHH") (str.to_re "II"))) (re.++ (re.* (re.+ (str.to_re "JJ"))) (re.++ (re.* (re.* (str.to_re "KKK"))) (re.++ (re.* (re.union (str.to_re "L") (str.to_re "M"))) (re.++ (re.* (re.union (str.to_re "NN") (str.to_re "OO"))) (re.++ (re.+ (re.union (str.to_re "PPP") (str.to_re "QQQ"))) (re.++ (re.union (re.union (str.to_re "RRR") (str.to_re "S")) (re.union (str.to_re "TTT") (str.to_re "UUU"))) (re.++ (re.+ (re.union (str.to_re "V") (str.to_re "W"))) (re.++ (re.+ (re.* (str.to_re "XX"))) (re.++ (re.+ (re.+ (str.to_re "Y"))) (re.++ (re.union (re.union (str.to_re "ZZ") (str.to_re "!!")) (re.union (str.to_re """""""") (str.to_re "##"))) (re.++ (re.+ (re.* (str.to_re "$"))) (re.++ (re.+ (re.* (str.to_re "%"))) (re.++ (re.* (re.union (str.to_re "&") (str.to_re "''"))) (re.++ (re.* (re.+ (str.to_re "(("))) (re.++ (re.* (re.+ (str.to_re ")))"))) (re.++ (re.* (re.union (str.to_re "***") (str.to_re "+"))) (re.++ (re.+ (re.union (str.to_re ",,,") (str.to_re "--"))) (re.++ (re.+ (re.* (str.to_re "..."))) (re.++ (re.union (re.union (str.to_re "/") (str.to_re "::")) (re.union (str.to_re ";;;") (str.to_re "<<<"))) (re.++ (re.union (re.* (str.to_re "=")) (re.* (str.to_re ">>>"))) (re.++ (re.union (re.+ (str.to_re "??")) (re.+ (str.to_re "@"))) (re.++ (re.union (re.union (str.to_re "[[[") (str.to_re "\\\\")) (re.union (str.to_re "]]]") (str.to_re "^^^"))) (re.++ (re.* (re.* (str.to_re "_"))) (re.++ (re.* (re.union (str.to_re "```") (str.to_re "{{{"))) (re.++ (re.* (re.* (str.to_re "|"))) (re.++ (re.+ (re.* (str.to_re "}}}"))) (re.* (re.union (str.to_re "~~") (str.to_re "00")))))))))))))))))))))))))))))))))))))))))))))))))))))))))))))
(check-sat)